reg.txt
  (define-fun x5 () Int
    2)
  (define-fun x6 () Int
    1)
  (define-fun x14 () Int
    1)
  (define-fun x2 () Int
    1)
  (define-fun x15 () Int
    1)
  (define-fun x10 () Int
    2)
  (define-fun x9 () Int
    1)
  (define-fun x11 () Int
    1)
